(set-logic QF_NRA_ODE)
(declare-fun x4 () Real [-100.000000, 100.000000])
(declare-fun x3 () Real [-100.000000, 100.000000])
(declare-fun x2 () Real [-100.000000, 100.000000])
(declare-fun x1 () Real [-100.000000, 100.000000])
(declare-fun w () Real [-100.000000, 100.000000])
(declare-fun u () Real [-100.000000, 100.000000])
(declare-fun lt () Real [0.000000, 0.005000])
(declare-fun gt () Real [0.000000, 100.000000])
(declare-fun x4_0_0 () Real [-100.000000, 100.000000])
(declare-fun x4_0_t () Real [-100.000000, 100.000000])
(declare-fun x4_1_0 () Real [-100.000000, 100.000000])
(declare-fun x4_1_t () Real [-100.000000, 100.000000])
(declare-fun x4_2_0 () Real [-100.000000, 100.000000])
(declare-fun x4_2_t () Real [-100.000000, 100.000000])
(declare-fun x4_3_0 () Real [-100.000000, 100.000000])
(declare-fun x4_3_t () Real [-100.000000, 100.000000])
(declare-fun x4_4_0 () Real [-100.000000, 100.000000])
(declare-fun x4_4_t () Real [-100.000000, 100.000000])
(declare-fun x4_5_0 () Real [-100.000000, 100.000000])
(declare-fun x4_5_t () Real [-100.000000, 100.000000])
(declare-fun x4_6_0 () Real [-100.000000, 100.000000])
(declare-fun x4_6_t () Real [-100.000000, 100.000000])
(declare-fun x4_7_0 () Real [-100.000000, 100.000000])
(declare-fun x4_7_t () Real [-100.000000, 100.000000])
(declare-fun x4_8_0 () Real [-100.000000, 100.000000])
(declare-fun x4_8_t () Real [-100.000000, 100.000000])
(declare-fun x4_9_0 () Real [-100.000000, 100.000000])
(declare-fun x4_9_t () Real [-100.000000, 100.000000])
(declare-fun x4_10_0 () Real [-100.000000, 100.000000])
(declare-fun x4_10_t () Real [-100.000000, 100.000000])
(declare-fun x4_11_0 () Real [-100.000000, 100.000000])
(declare-fun x4_11_t () Real [-100.000000, 100.000000])
(declare-fun x4_12_0 () Real [-100.000000, 100.000000])
(declare-fun x4_12_t () Real [-100.000000, 100.000000])
(declare-fun x4_13_0 () Real [-100.000000, 100.000000])
(declare-fun x4_13_t () Real [-100.000000, 100.000000])
(declare-fun x4_14_0 () Real [-100.000000, 100.000000])
(declare-fun x4_14_t () Real [-100.000000, 100.000000])
(declare-fun x4_15_0 () Real [-100.000000, 100.000000])
(declare-fun x4_15_t () Real [-100.000000, 100.000000])
(declare-fun x4_16_0 () Real [-100.000000, 100.000000])
(declare-fun x4_16_t () Real [-100.000000, 100.000000])
(declare-fun x4_17_0 () Real [-100.000000, 100.000000])
(declare-fun x4_17_t () Real [-100.000000, 100.000000])
(declare-fun x4_18_0 () Real [-100.000000, 100.000000])
(declare-fun x4_18_t () Real [-100.000000, 100.000000])
(declare-fun x4_19_0 () Real [-100.000000, 100.000000])
(declare-fun x4_19_t () Real [-100.000000, 100.000000])
(declare-fun x3_0_0 () Real [-100.000000, 100.000000])
(declare-fun x3_0_t () Real [-100.000000, 100.000000])
(declare-fun x3_1_0 () Real [-100.000000, 100.000000])
(declare-fun x3_1_t () Real [-100.000000, 100.000000])
(declare-fun x3_2_0 () Real [-100.000000, 100.000000])
(declare-fun x3_2_t () Real [-100.000000, 100.000000])
(declare-fun x3_3_0 () Real [-100.000000, 100.000000])
(declare-fun x3_3_t () Real [-100.000000, 100.000000])
(declare-fun x3_4_0 () Real [-100.000000, 100.000000])
(declare-fun x3_4_t () Real [-100.000000, 100.000000])
(declare-fun x3_5_0 () Real [-100.000000, 100.000000])
(declare-fun x3_5_t () Real [-100.000000, 100.000000])
(declare-fun x3_6_0 () Real [-100.000000, 100.000000])
(declare-fun x3_6_t () Real [-100.000000, 100.000000])
(declare-fun x3_7_0 () Real [-100.000000, 100.000000])
(declare-fun x3_7_t () Real [-100.000000, 100.000000])
(declare-fun x3_8_0 () Real [-100.000000, 100.000000])
(declare-fun x3_8_t () Real [-100.000000, 100.000000])
(declare-fun x3_9_0 () Real [-100.000000, 100.000000])
(declare-fun x3_9_t () Real [-100.000000, 100.000000])
(declare-fun x3_10_0 () Real [-100.000000, 100.000000])
(declare-fun x3_10_t () Real [-100.000000, 100.000000])
(declare-fun x3_11_0 () Real [-100.000000, 100.000000])
(declare-fun x3_11_t () Real [-100.000000, 100.000000])
(declare-fun x3_12_0 () Real [-100.000000, 100.000000])
(declare-fun x3_12_t () Real [-100.000000, 100.000000])
(declare-fun x3_13_0 () Real [-100.000000, 100.000000])
(declare-fun x3_13_t () Real [-100.000000, 100.000000])
(declare-fun x3_14_0 () Real [-100.000000, 100.000000])
(declare-fun x3_14_t () Real [-100.000000, 100.000000])
(declare-fun x3_15_0 () Real [-100.000000, 100.000000])
(declare-fun x3_15_t () Real [-100.000000, 100.000000])
(declare-fun x3_16_0 () Real [-100.000000, 100.000000])
(declare-fun x3_16_t () Real [-100.000000, 100.000000])
(declare-fun x3_17_0 () Real [-100.000000, 100.000000])
(declare-fun x3_17_t () Real [-100.000000, 100.000000])
(declare-fun x3_18_0 () Real [-100.000000, 100.000000])
(declare-fun x3_18_t () Real [-100.000000, 100.000000])
(declare-fun x3_19_0 () Real [-100.000000, 100.000000])
(declare-fun x3_19_t () Real [-100.000000, 100.000000])
(declare-fun x2_0_0 () Real [-100.000000, 100.000000])
(declare-fun x2_0_t () Real [-100.000000, 100.000000])
(declare-fun x2_1_0 () Real [-100.000000, 100.000000])
(declare-fun x2_1_t () Real [-100.000000, 100.000000])
(declare-fun x2_2_0 () Real [-100.000000, 100.000000])
(declare-fun x2_2_t () Real [-100.000000, 100.000000])
(declare-fun x2_3_0 () Real [-100.000000, 100.000000])
(declare-fun x2_3_t () Real [-100.000000, 100.000000])
(declare-fun x2_4_0 () Real [-100.000000, 100.000000])
(declare-fun x2_4_t () Real [-100.000000, 100.000000])
(declare-fun x2_5_0 () Real [-100.000000, 100.000000])
(declare-fun x2_5_t () Real [-100.000000, 100.000000])
(declare-fun x2_6_0 () Real [-100.000000, 100.000000])
(declare-fun x2_6_t () Real [-100.000000, 100.000000])
(declare-fun x2_7_0 () Real [-100.000000, 100.000000])
(declare-fun x2_7_t () Real [-100.000000, 100.000000])
(declare-fun x2_8_0 () Real [-100.000000, 100.000000])
(declare-fun x2_8_t () Real [-100.000000, 100.000000])
(declare-fun x2_9_0 () Real [-100.000000, 100.000000])
(declare-fun x2_9_t () Real [-100.000000, 100.000000])
(declare-fun x2_10_0 () Real [-100.000000, 100.000000])
(declare-fun x2_10_t () Real [-100.000000, 100.000000])
(declare-fun x2_11_0 () Real [-100.000000, 100.000000])
(declare-fun x2_11_t () Real [-100.000000, 100.000000])
(declare-fun x2_12_0 () Real [-100.000000, 100.000000])
(declare-fun x2_12_t () Real [-100.000000, 100.000000])
(declare-fun x2_13_0 () Real [-100.000000, 100.000000])
(declare-fun x2_13_t () Real [-100.000000, 100.000000])
(declare-fun x2_14_0 () Real [-100.000000, 100.000000])
(declare-fun x2_14_t () Real [-100.000000, 100.000000])
(declare-fun x2_15_0 () Real [-100.000000, 100.000000])
(declare-fun x2_15_t () Real [-100.000000, 100.000000])
(declare-fun x2_16_0 () Real [-100.000000, 100.000000])
(declare-fun x2_16_t () Real [-100.000000, 100.000000])
(declare-fun x2_17_0 () Real [-100.000000, 100.000000])
(declare-fun x2_17_t () Real [-100.000000, 100.000000])
(declare-fun x2_18_0 () Real [-100.000000, 100.000000])
(declare-fun x2_18_t () Real [-100.000000, 100.000000])
(declare-fun x2_19_0 () Real [-100.000000, 100.000000])
(declare-fun x2_19_t () Real [-100.000000, 100.000000])
(declare-fun x1_0_0 () Real [-100.000000, 100.000000])
(declare-fun x1_0_t () Real [-100.000000, 100.000000])
(declare-fun x1_1_0 () Real [-100.000000, 100.000000])
(declare-fun x1_1_t () Real [-100.000000, 100.000000])
(declare-fun x1_2_0 () Real [-100.000000, 100.000000])
(declare-fun x1_2_t () Real [-100.000000, 100.000000])
(declare-fun x1_3_0 () Real [-100.000000, 100.000000])
(declare-fun x1_3_t () Real [-100.000000, 100.000000])
(declare-fun x1_4_0 () Real [-100.000000, 100.000000])
(declare-fun x1_4_t () Real [-100.000000, 100.000000])
(declare-fun x1_5_0 () Real [-100.000000, 100.000000])
(declare-fun x1_5_t () Real [-100.000000, 100.000000])
(declare-fun x1_6_0 () Real [-100.000000, 100.000000])
(declare-fun x1_6_t () Real [-100.000000, 100.000000])
(declare-fun x1_7_0 () Real [-100.000000, 100.000000])
(declare-fun x1_7_t () Real [-100.000000, 100.000000])
(declare-fun x1_8_0 () Real [-100.000000, 100.000000])
(declare-fun x1_8_t () Real [-100.000000, 100.000000])
(declare-fun x1_9_0 () Real [-100.000000, 100.000000])
(declare-fun x1_9_t () Real [-100.000000, 100.000000])
(declare-fun x1_10_0 () Real [-100.000000, 100.000000])
(declare-fun x1_10_t () Real [-100.000000, 100.000000])
(declare-fun x1_11_0 () Real [-100.000000, 100.000000])
(declare-fun x1_11_t () Real [-100.000000, 100.000000])
(declare-fun x1_12_0 () Real [-100.000000, 100.000000])
(declare-fun x1_12_t () Real [-100.000000, 100.000000])
(declare-fun x1_13_0 () Real [-100.000000, 100.000000])
(declare-fun x1_13_t () Real [-100.000000, 100.000000])
(declare-fun x1_14_0 () Real [-100.000000, 100.000000])
(declare-fun x1_14_t () Real [-100.000000, 100.000000])
(declare-fun x1_15_0 () Real [-100.000000, 100.000000])
(declare-fun x1_15_t () Real [-100.000000, 100.000000])
(declare-fun x1_16_0 () Real [-100.000000, 100.000000])
(declare-fun x1_16_t () Real [-100.000000, 100.000000])
(declare-fun x1_17_0 () Real [-100.000000, 100.000000])
(declare-fun x1_17_t () Real [-100.000000, 100.000000])
(declare-fun x1_18_0 () Real [-100.000000, 100.000000])
(declare-fun x1_18_t () Real [-100.000000, 100.000000])
(declare-fun x1_19_0 () Real [-100.000000, 100.000000])
(declare-fun x1_19_t () Real [-100.000000, 100.000000])
(declare-fun w_0_0 () Real [-100.000000, 100.000000])
(declare-fun w_0_t () Real [-100.000000, 100.000000])
(declare-fun w_1_0 () Real [-100.000000, 100.000000])
(declare-fun w_1_t () Real [-100.000000, 100.000000])
(declare-fun w_2_0 () Real [-100.000000, 100.000000])
(declare-fun w_2_t () Real [-100.000000, 100.000000])
(declare-fun w_3_0 () Real [-100.000000, 100.000000])
(declare-fun w_3_t () Real [-100.000000, 100.000000])
(declare-fun w_4_0 () Real [-100.000000, 100.000000])
(declare-fun w_4_t () Real [-100.000000, 100.000000])
(declare-fun w_5_0 () Real [-100.000000, 100.000000])
(declare-fun w_5_t () Real [-100.000000, 100.000000])
(declare-fun w_6_0 () Real [-100.000000, 100.000000])
(declare-fun w_6_t () Real [-100.000000, 100.000000])
(declare-fun w_7_0 () Real [-100.000000, 100.000000])
(declare-fun w_7_t () Real [-100.000000, 100.000000])
(declare-fun w_8_0 () Real [-100.000000, 100.000000])
(declare-fun w_8_t () Real [-100.000000, 100.000000])
(declare-fun w_9_0 () Real [-100.000000, 100.000000])
(declare-fun w_9_t () Real [-100.000000, 100.000000])
(declare-fun w_10_0 () Real [-100.000000, 100.000000])
(declare-fun w_10_t () Real [-100.000000, 100.000000])
(declare-fun w_11_0 () Real [-100.000000, 100.000000])
(declare-fun w_11_t () Real [-100.000000, 100.000000])
(declare-fun w_12_0 () Real [-100.000000, 100.000000])
(declare-fun w_12_t () Real [-100.000000, 100.000000])
(declare-fun w_13_0 () Real [-100.000000, 100.000000])
(declare-fun w_13_t () Real [-100.000000, 100.000000])
(declare-fun w_14_0 () Real [-100.000000, 100.000000])
(declare-fun w_14_t () Real [-100.000000, 100.000000])
(declare-fun w_15_0 () Real [-100.000000, 100.000000])
(declare-fun w_15_t () Real [-100.000000, 100.000000])
(declare-fun w_16_0 () Real [-100.000000, 100.000000])
(declare-fun w_16_t () Real [-100.000000, 100.000000])
(declare-fun w_17_0 () Real [-100.000000, 100.000000])
(declare-fun w_17_t () Real [-100.000000, 100.000000])
(declare-fun w_18_0 () Real [-100.000000, 100.000000])
(declare-fun w_18_t () Real [-100.000000, 100.000000])
(declare-fun w_19_0 () Real [-100.000000, 100.000000])
(declare-fun w_19_t () Real [-100.000000, 100.000000])
(declare-fun u_0_0 () Real [-100.000000, 100.000000])
(declare-fun u_0_t () Real [-100.000000, 100.000000])
(declare-fun u_1_0 () Real [-100.000000, 100.000000])
(declare-fun u_1_t () Real [-100.000000, 100.000000])
(declare-fun u_2_0 () Real [-100.000000, 100.000000])
(declare-fun u_2_t () Real [-100.000000, 100.000000])
(declare-fun u_3_0 () Real [-100.000000, 100.000000])
(declare-fun u_3_t () Real [-100.000000, 100.000000])
(declare-fun u_4_0 () Real [-100.000000, 100.000000])
(declare-fun u_4_t () Real [-100.000000, 100.000000])
(declare-fun u_5_0 () Real [-100.000000, 100.000000])
(declare-fun u_5_t () Real [-100.000000, 100.000000])
(declare-fun u_6_0 () Real [-100.000000, 100.000000])
(declare-fun u_6_t () Real [-100.000000, 100.000000])
(declare-fun u_7_0 () Real [-100.000000, 100.000000])
(declare-fun u_7_t () Real [-100.000000, 100.000000])
(declare-fun u_8_0 () Real [-100.000000, 100.000000])
(declare-fun u_8_t () Real [-100.000000, 100.000000])
(declare-fun u_9_0 () Real [-100.000000, 100.000000])
(declare-fun u_9_t () Real [-100.000000, 100.000000])
(declare-fun u_10_0 () Real [-100.000000, 100.000000])
(declare-fun u_10_t () Real [-100.000000, 100.000000])
(declare-fun u_11_0 () Real [-100.000000, 100.000000])
(declare-fun u_11_t () Real [-100.000000, 100.000000])
(declare-fun u_12_0 () Real [-100.000000, 100.000000])
(declare-fun u_12_t () Real [-100.000000, 100.000000])
(declare-fun u_13_0 () Real [-100.000000, 100.000000])
(declare-fun u_13_t () Real [-100.000000, 100.000000])
(declare-fun u_14_0 () Real [-100.000000, 100.000000])
(declare-fun u_14_t () Real [-100.000000, 100.000000])
(declare-fun u_15_0 () Real [-100.000000, 100.000000])
(declare-fun u_15_t () Real [-100.000000, 100.000000])
(declare-fun u_16_0 () Real [-100.000000, 100.000000])
(declare-fun u_16_t () Real [-100.000000, 100.000000])
(declare-fun u_17_0 () Real [-100.000000, 100.000000])
(declare-fun u_17_t () Real [-100.000000, 100.000000])
(declare-fun u_18_0 () Real [-100.000000, 100.000000])
(declare-fun u_18_t () Real [-100.000000, 100.000000])
(declare-fun u_19_0 () Real [-100.000000, 100.000000])
(declare-fun u_19_t () Real [-100.000000, 100.000000])
(declare-fun lt_0_0 () Real [0.000000, 0.005000])
(declare-fun lt_0_t () Real [0.000000, 0.005000])
(declare-fun lt_1_0 () Real [0.000000, 0.005000])
(declare-fun lt_1_t () Real [0.000000, 0.005000])
(declare-fun lt_2_0 () Real [0.000000, 0.005000])
(declare-fun lt_2_t () Real [0.000000, 0.005000])
(declare-fun lt_3_0 () Real [0.000000, 0.005000])
(declare-fun lt_3_t () Real [0.000000, 0.005000])
(declare-fun lt_4_0 () Real [0.000000, 0.005000])
(declare-fun lt_4_t () Real [0.000000, 0.005000])
(declare-fun lt_5_0 () Real [0.000000, 0.005000])
(declare-fun lt_5_t () Real [0.000000, 0.005000])
(declare-fun lt_6_0 () Real [0.000000, 0.005000])
(declare-fun lt_6_t () Real [0.000000, 0.005000])
(declare-fun lt_7_0 () Real [0.000000, 0.005000])
(declare-fun lt_7_t () Real [0.000000, 0.005000])
(declare-fun lt_8_0 () Real [0.000000, 0.005000])
(declare-fun lt_8_t () Real [0.000000, 0.005000])
(declare-fun lt_9_0 () Real [0.000000, 0.005000])
(declare-fun lt_9_t () Real [0.000000, 0.005000])
(declare-fun lt_10_0 () Real [0.000000, 0.005000])
(declare-fun lt_10_t () Real [0.000000, 0.005000])
(declare-fun lt_11_0 () Real [0.000000, 0.005000])
(declare-fun lt_11_t () Real [0.000000, 0.005000])
(declare-fun lt_12_0 () Real [0.000000, 0.005000])
(declare-fun lt_12_t () Real [0.000000, 0.005000])
(declare-fun lt_13_0 () Real [0.000000, 0.005000])
(declare-fun lt_13_t () Real [0.000000, 0.005000])
(declare-fun lt_14_0 () Real [0.000000, 0.005000])
(declare-fun lt_14_t () Real [0.000000, 0.005000])
(declare-fun lt_15_0 () Real [0.000000, 0.005000])
(declare-fun lt_15_t () Real [0.000000, 0.005000])
(declare-fun lt_16_0 () Real [0.000000, 0.005000])
(declare-fun lt_16_t () Real [0.000000, 0.005000])
(declare-fun lt_17_0 () Real [0.000000, 0.005000])
(declare-fun lt_17_t () Real [0.000000, 0.005000])
(declare-fun lt_18_0 () Real [0.000000, 0.005000])
(declare-fun lt_18_t () Real [0.000000, 0.005000])
(declare-fun lt_19_0 () Real [0.000000, 0.005000])
(declare-fun lt_19_t () Real [0.000000, 0.005000])
(declare-fun gt_0_0 () Real [0.000000, 100.000000])
(declare-fun gt_0_t () Real [0.000000, 100.000000])
(declare-fun gt_1_0 () Real [0.000000, 100.000000])
(declare-fun gt_1_t () Real [0.000000, 100.000000])
(declare-fun gt_2_0 () Real [0.000000, 100.000000])
(declare-fun gt_2_t () Real [0.000000, 100.000000])
(declare-fun gt_3_0 () Real [0.000000, 100.000000])
(declare-fun gt_3_t () Real [0.000000, 100.000000])
(declare-fun gt_4_0 () Real [0.000000, 100.000000])
(declare-fun gt_4_t () Real [0.000000, 100.000000])
(declare-fun gt_5_0 () Real [0.000000, 100.000000])
(declare-fun gt_5_t () Real [0.000000, 100.000000])
(declare-fun gt_6_0 () Real [0.000000, 100.000000])
(declare-fun gt_6_t () Real [0.000000, 100.000000])
(declare-fun gt_7_0 () Real [0.000000, 100.000000])
(declare-fun gt_7_t () Real [0.000000, 100.000000])
(declare-fun gt_8_0 () Real [0.000000, 100.000000])
(declare-fun gt_8_t () Real [0.000000, 100.000000])
(declare-fun gt_9_0 () Real [0.000000, 100.000000])
(declare-fun gt_9_t () Real [0.000000, 100.000000])
(declare-fun gt_10_0 () Real [0.000000, 100.000000])
(declare-fun gt_10_t () Real [0.000000, 100.000000])
(declare-fun gt_11_0 () Real [0.000000, 100.000000])
(declare-fun gt_11_t () Real [0.000000, 100.000000])
(declare-fun gt_12_0 () Real [0.000000, 100.000000])
(declare-fun gt_12_t () Real [0.000000, 100.000000])
(declare-fun gt_13_0 () Real [0.000000, 100.000000])
(declare-fun gt_13_t () Real [0.000000, 100.000000])
(declare-fun gt_14_0 () Real [0.000000, 100.000000])
(declare-fun gt_14_t () Real [0.000000, 100.000000])
(declare-fun gt_15_0 () Real [0.000000, 100.000000])
(declare-fun gt_15_t () Real [0.000000, 100.000000])
(declare-fun gt_16_0 () Real [0.000000, 100.000000])
(declare-fun gt_16_t () Real [0.000000, 100.000000])
(declare-fun gt_17_0 () Real [0.000000, 100.000000])
(declare-fun gt_17_t () Real [0.000000, 100.000000])
(declare-fun gt_18_0 () Real [0.000000, 100.000000])
(declare-fun gt_18_t () Real [0.000000, 100.000000])
(declare-fun gt_19_0 () Real [0.000000, 100.000000])
(declare-fun gt_19_t () Real [0.000000, 100.000000])
(declare-fun time_0 () Real [0.000000, 100.000000])
(declare-fun time_1 () Real [0.000000, 100.000000])
(declare-fun time_2 () Real [0.000000, 100.000000])
(declare-fun time_3 () Real [0.000000, 100.000000])
(declare-fun time_4 () Real [0.000000, 100.000000])
(declare-fun time_5 () Real [0.000000, 100.000000])
(declare-fun time_6 () Real [0.000000, 100.000000])
(declare-fun time_7 () Real [0.000000, 100.000000])
(declare-fun time_8 () Real [0.000000, 100.000000])
(declare-fun time_9 () Real [0.000000, 100.000000])
(declare-fun time_10 () Real [0.000000, 100.000000])
(declare-fun time_11 () Real [0.000000, 100.000000])
(declare-fun time_12 () Real [0.000000, 100.000000])
(declare-fun time_13 () Real [0.000000, 100.000000])
(declare-fun time_14 () Real [0.000000, 100.000000])
(declare-fun time_15 () Real [0.000000, 100.000000])
(declare-fun time_16 () Real [0.000000, 100.000000])
(declare-fun time_17 () Real [0.000000, 100.000000])
(declare-fun time_18 () Real [0.000000, 100.000000])
(declare-fun time_19 () Real [0.000000, 100.000000])
(declare-fun mode_0 () Real [1.000000, 1.000000])
(declare-fun mode_1 () Real [1.000000, 1.000000])
(declare-fun mode_2 () Real [1.000000, 1.000000])
(declare-fun mode_3 () Real [1.000000, 1.000000])
(declare-fun mode_4 () Real [1.000000, 1.000000])
(declare-fun mode_5 () Real [1.000000, 1.000000])
(declare-fun mode_6 () Real [1.000000, 1.000000])
(declare-fun mode_7 () Real [1.000000, 1.000000])
(declare-fun mode_8 () Real [1.000000, 1.000000])
(declare-fun mode_9 () Real [1.000000, 1.000000])
(declare-fun mode_10 () Real [1.000000, 1.000000])
(declare-fun mode_11 () Real [1.000000, 1.000000])
(declare-fun mode_12 () Real [1.000000, 1.000000])
(declare-fun mode_13 () Real [1.000000, 1.000000])
(declare-fun mode_14 () Real [1.000000, 1.000000])
(declare-fun mode_15 () Real [1.000000, 1.000000])
(declare-fun mode_16 () Real [1.000000, 1.000000])
(declare-fun mode_17 () Real [1.000000, 1.000000])
(declare-fun mode_18 () Real [1.000000, 1.000000])
(declare-fun mode_19 () Real [1.000000, 1.000000])
(define-ode flow_1 ((= d/dt[gt] 1) (= d/dt[lt] 1) (= d/dt[u] 0) (= d/dt[w] (- x2 (* 0.2 w))) (= d/dt[x1] (- (+ (+ (+ (- (* -0.0558 x1) (* 0.9968 x2)) (* 0.0802 x3)) (* 0.0415 x4)) (* 0.0170586 x2)) (* 0.00341172 w))) (= d/dt[x2] (+ (- (- (- (* 0.598 x1) (* 0.115 x2)) (* 0.0318 x3)) (* 1.1115 x2)) (* 0.2223 w))) (= d/dt[x3] (- (+ (- (+ (* -3.05 x1) (* 0.388 x2)) (* 0.465 x3)) (* 0.35802 x2)) (* 0.071604 w))) (= d/dt[x4] (+ (* 0.0805 x2) x3))))
(assert (and (and (= lt_0_0 0.005) (= gt_0_0 25) (>= u_0_0 0) (<= u_0_0 0) (>= w_0_0 0.017526) (<= w_0_0 0.01972) (>= x4_0_0 0.083478) (<= x4_0_0 0.083644) (>= x3_0_0 -0.002037) (<= x3_0_0 0.0008) (>= x2_0_0 0.003433) (<= x2_0_0 0.003857) (>= x1_0_0 0.000293) (<= x1_0_0 0.000624)) (= mode_0 1) (= u_0_t (+ u_0_0 (* 0 time_0))) (= lt_0_t (+ lt_0_0 (* 1 time_0))) (= gt_0_t (+ gt_0_0 (* 1 time_0))) (= [gt_0_t lt_0_t u_0_t w_0_t x1_0_t x2_0_t x3_0_t x4_0_t] (integral 0. time_0 [gt_0_0 lt_0_0 u_0_0 w_0_0 x1_0_0 x2_0_0 x3_0_0 x4_0_0] flow_1)) (= mode_0 1) (forall_t 1 [0 time_0] (<= lt_0_t 0.005)) (<= lt_0_t 0.005) (<= lt_0_0 0.005) (= mode_1 1) (= lt_0_t 0.005) (= gt_1_0 gt_0_t) (= lt_1_0 0) (= u_1_0 (- (* 2.34 x2_0_t) (* (* 2.34 0.2) w_0_t))) (= w_1_0 w_0_t) (= x4_1_0 x4_0_t) (= x3_1_0 x3_0_t) (= x2_1_0 x2_0_t) (= x1_1_0 x1_0_t) (= u_1_t (+ u_1_0 (* 0 time_1))) (= lt_1_t (+ lt_1_0 (* 1 time_1))) (= gt_1_t (+ gt_1_0 (* 1 time_1))) (= [gt_1_t lt_1_t u_1_t w_1_t x1_1_t x2_1_t x3_1_t x4_1_t] (integral 0. time_1 [gt_1_0 lt_1_0 u_1_0 w_1_0 x1_1_0 x2_1_0 x3_1_0 x4_1_0] flow_1)) (= mode_1 1) (forall_t 1 [0 time_1] (<= lt_1_t 0.005)) (<= lt_1_t 0.005) (<= lt_1_0 0.005) (= mode_2 1) (= lt_1_t 0.005) (= gt_2_0 gt_1_t) (= lt_2_0 0) (= u_2_0 (- (* 2.34 x2_1_t) (* (* 2.34 0.2) w_1_t))) (= w_2_0 w_1_t) (= x4_2_0 x4_1_t) (= x3_2_0 x3_1_t) (= x2_2_0 x2_1_t) (= x1_2_0 x1_1_t) (= u_2_t (+ u_2_0 (* 0 time_2))) (= lt_2_t (+ lt_2_0 (* 1 time_2))) (= gt_2_t (+ gt_2_0 (* 1 time_2))) (= [gt_2_t lt_2_t u_2_t w_2_t x1_2_t x2_2_t x3_2_t x4_2_t] (integral 0. time_2 [gt_2_0 lt_2_0 u_2_0 w_2_0 x1_2_0 x2_2_0 x3_2_0 x4_2_0] flow_1)) (= mode_2 1) (forall_t 1 [0 time_2] (<= lt_2_t 0.005)) (<= lt_2_t 0.005) (<= lt_2_0 0.005) (= mode_3 1) (= lt_2_t 0.005) (= gt_3_0 gt_2_t) (= lt_3_0 0) (= u_3_0 (- (* 2.34 x2_2_t) (* (* 2.34 0.2) w_2_t))) (= w_3_0 w_2_t) (= x4_3_0 x4_2_t) (= x3_3_0 x3_2_t) (= x2_3_0 x2_2_t) (= x1_3_0 x1_2_t) (= u_3_t (+ u_3_0 (* 0 time_3))) (= lt_3_t (+ lt_3_0 (* 1 time_3))) (= gt_3_t (+ gt_3_0 (* 1 time_3))) (= [gt_3_t lt_3_t u_3_t w_3_t x1_3_t x2_3_t x3_3_t x4_3_t] (integral 0. time_3 [gt_3_0 lt_3_0 u_3_0 w_3_0 x1_3_0 x2_3_0 x3_3_0 x4_3_0] flow_1)) (= mode_3 1) (forall_t 1 [0 time_3] (<= lt_3_t 0.005)) (<= lt_3_t 0.005) (<= lt_3_0 0.005) (= mode_4 1) (= lt_3_t 0.005) (= gt_4_0 gt_3_t) (= lt_4_0 0) (= u_4_0 (- (* 2.34 x2_3_t) (* (* 2.34 0.2) w_3_t))) (= w_4_0 w_3_t) (= x4_4_0 x4_3_t) (= x3_4_0 x3_3_t) (= x2_4_0 x2_3_t) (= x1_4_0 x1_3_t) (= u_4_t (+ u_4_0 (* 0 time_4))) (= lt_4_t (+ lt_4_0 (* 1 time_4))) (= gt_4_t (+ gt_4_0 (* 1 time_4))) (= [gt_4_t lt_4_t u_4_t w_4_t x1_4_t x2_4_t x3_4_t x4_4_t] (integral 0. time_4 [gt_4_0 lt_4_0 u_4_0 w_4_0 x1_4_0 x2_4_0 x3_4_0 x4_4_0] flow_1)) (= mode_4 1) (forall_t 1 [0 time_4] (<= lt_4_t 0.005)) (<= lt_4_t 0.005) (<= lt_4_0 0.005) (= mode_5 1) (= lt_4_t 0.005) (= gt_5_0 gt_4_t) (= lt_5_0 0) (= u_5_0 (- (* 2.34 x2_4_t) (* (* 2.34 0.2) w_4_t))) (= w_5_0 w_4_t) (= x4_5_0 x4_4_t) (= x3_5_0 x3_4_t) (= x2_5_0 x2_4_t) (= x1_5_0 x1_4_t) (= u_5_t (+ u_5_0 (* 0 time_5))) (= lt_5_t (+ lt_5_0 (* 1 time_5))) (= gt_5_t (+ gt_5_0 (* 1 time_5))) (= [gt_5_t lt_5_t u_5_t w_5_t x1_5_t x2_5_t x3_5_t x4_5_t] (integral 0. time_5 [gt_5_0 lt_5_0 u_5_0 w_5_0 x1_5_0 x2_5_0 x3_5_0 x4_5_0] flow_1)) (= mode_5 1) (forall_t 1 [0 time_5] (<= lt_5_t 0.005)) (<= lt_5_t 0.005) (<= lt_5_0 0.005) (= mode_6 1) (= lt_5_t 0.005) (= gt_6_0 gt_5_t) (= lt_6_0 0) (= u_6_0 (- (* 2.34 x2_5_t) (* (* 2.34 0.2) w_5_t))) (= w_6_0 w_5_t) (= x4_6_0 x4_5_t) (= x3_6_0 x3_5_t) (= x2_6_0 x2_5_t) (= x1_6_0 x1_5_t) (= u_6_t (+ u_6_0 (* 0 time_6))) (= lt_6_t (+ lt_6_0 (* 1 time_6))) (= gt_6_t (+ gt_6_0 (* 1 time_6))) (= [gt_6_t lt_6_t u_6_t w_6_t x1_6_t x2_6_t x3_6_t x4_6_t] (integral 0. time_6 [gt_6_0 lt_6_0 u_6_0 w_6_0 x1_6_0 x2_6_0 x3_6_0 x4_6_0] flow_1)) (= mode_6 1) (forall_t 1 [0 time_6] (<= lt_6_t 0.005)) (<= lt_6_t 0.005) (<= lt_6_0 0.005) (= mode_7 1) (= lt_6_t 0.005) (= gt_7_0 gt_6_t) (= lt_7_0 0) (= u_7_0 (- (* 2.34 x2_6_t) (* (* 2.34 0.2) w_6_t))) (= w_7_0 w_6_t) (= x4_7_0 x4_6_t) (= x3_7_0 x3_6_t) (= x2_7_0 x2_6_t) (= x1_7_0 x1_6_t) (= u_7_t (+ u_7_0 (* 0 time_7))) (= lt_7_t (+ lt_7_0 (* 1 time_7))) (= gt_7_t (+ gt_7_0 (* 1 time_7))) (= [gt_7_t lt_7_t u_7_t w_7_t x1_7_t x2_7_t x3_7_t x4_7_t] (integral 0. time_7 [gt_7_0 lt_7_0 u_7_0 w_7_0 x1_7_0 x2_7_0 x3_7_0 x4_7_0] flow_1)) (= mode_7 1) (forall_t 1 [0 time_7] (<= lt_7_t 0.005)) (<= lt_7_t 0.005) (<= lt_7_0 0.005) (= mode_8 1) (= lt_7_t 0.005) (= gt_8_0 gt_7_t) (= lt_8_0 0) (= u_8_0 (- (* 2.34 x2_7_t) (* (* 2.34 0.2) w_7_t))) (= w_8_0 w_7_t) (= x4_8_0 x4_7_t) (= x3_8_0 x3_7_t) (= x2_8_0 x2_7_t) (= x1_8_0 x1_7_t) (= u_8_t (+ u_8_0 (* 0 time_8))) (= lt_8_t (+ lt_8_0 (* 1 time_8))) (= gt_8_t (+ gt_8_0 (* 1 time_8))) (= [gt_8_t lt_8_t u_8_t w_8_t x1_8_t x2_8_t x3_8_t x4_8_t] (integral 0. time_8 [gt_8_0 lt_8_0 u_8_0 w_8_0 x1_8_0 x2_8_0 x3_8_0 x4_8_0] flow_1)) (= mode_8 1) (forall_t 1 [0 time_8] (<= lt_8_t 0.005)) (<= lt_8_t 0.005) (<= lt_8_0 0.005) (= mode_9 1) (= lt_8_t 0.005) (= gt_9_0 gt_8_t) (= lt_9_0 0) (= u_9_0 (- (* 2.34 x2_8_t) (* (* 2.34 0.2) w_8_t))) (= w_9_0 w_8_t) (= x4_9_0 x4_8_t) (= x3_9_0 x3_8_t) (= x2_9_0 x2_8_t) (= x1_9_0 x1_8_t) (= u_9_t (+ u_9_0 (* 0 time_9))) (= lt_9_t (+ lt_9_0 (* 1 time_9))) (= gt_9_t (+ gt_9_0 (* 1 time_9))) (= [gt_9_t lt_9_t u_9_t w_9_t x1_9_t x2_9_t x3_9_t x4_9_t] (integral 0. time_9 [gt_9_0 lt_9_0 u_9_0 w_9_0 x1_9_0 x2_9_0 x3_9_0 x4_9_0] flow_1)) (= mode_9 1) (forall_t 1 [0 time_9] (<= lt_9_t 0.005)) (<= lt_9_t 0.005) (<= lt_9_0 0.005) (= mode_10 1) (= lt_9_t 0.005) (= gt_10_0 gt_9_t) (= lt_10_0 0) (= u_10_0 (- (* 2.34 x2_9_t) (* (* 2.34 0.2) w_9_t))) (= w_10_0 w_9_t) (= x4_10_0 x4_9_t) (= x3_10_0 x3_9_t) (= x2_10_0 x2_9_t) (= x1_10_0 x1_9_t) (= u_10_t (+ u_10_0 (* 0 time_10))) (= lt_10_t (+ lt_10_0 (* 1 time_10))) (= gt_10_t (+ gt_10_0 (* 1 time_10))) (= [gt_10_t lt_10_t u_10_t w_10_t x1_10_t x2_10_t x3_10_t x4_10_t] (integral 0. time_10 [gt_10_0 lt_10_0 u_10_0 w_10_0 x1_10_0 x2_10_0 x3_10_0 x4_10_0] flow_1)) (= mode_10 1) (forall_t 1 [0 time_10] (<= lt_10_t 0.005)) (<= lt_10_t 0.005) (<= lt_10_0 0.005) (= mode_11 1) (= lt_10_t 0.005) (= gt_11_0 gt_10_t) (= lt_11_0 0) (= u_11_0 (- (* 2.34 x2_10_t) (* (* 2.34 0.2) w_10_t))) (= w_11_0 w_10_t) (= x4_11_0 x4_10_t) (= x3_11_0 x3_10_t) (= x2_11_0 x2_10_t) (= x1_11_0 x1_10_t) (= u_11_t (+ u_11_0 (* 0 time_11))) (= lt_11_t (+ lt_11_0 (* 1 time_11))) (= gt_11_t (+ gt_11_0 (* 1 time_11))) (= [gt_11_t lt_11_t u_11_t w_11_t x1_11_t x2_11_t x3_11_t x4_11_t] (integral 0. time_11 [gt_11_0 lt_11_0 u_11_0 w_11_0 x1_11_0 x2_11_0 x3_11_0 x4_11_0] flow_1)) (= mode_11 1) (forall_t 1 [0 time_11] (<= lt_11_t 0.005)) (<= lt_11_t 0.005) (<= lt_11_0 0.005) (= mode_12 1) (= lt_11_t 0.005) (= gt_12_0 gt_11_t) (= lt_12_0 0) (= u_12_0 (- (* 2.34 x2_11_t) (* (* 2.34 0.2) w_11_t))) (= w_12_0 w_11_t) (= x4_12_0 x4_11_t) (= x3_12_0 x3_11_t) (= x2_12_0 x2_11_t) (= x1_12_0 x1_11_t) (= u_12_t (+ u_12_0 (* 0 time_12))) (= lt_12_t (+ lt_12_0 (* 1 time_12))) (= gt_12_t (+ gt_12_0 (* 1 time_12))) (= [gt_12_t lt_12_t u_12_t w_12_t x1_12_t x2_12_t x3_12_t x4_12_t] (integral 0. time_12 [gt_12_0 lt_12_0 u_12_0 w_12_0 x1_12_0 x2_12_0 x3_12_0 x4_12_0] flow_1)) (= mode_12 1) (forall_t 1 [0 time_12] (<= lt_12_t 0.005)) (<= lt_12_t 0.005) (<= lt_12_0 0.005) (= mode_13 1) (= lt_12_t 0.005) (= gt_13_0 gt_12_t) (= lt_13_0 0) (= u_13_0 (- (* 2.34 x2_12_t) (* (* 2.34 0.2) w_12_t))) (= w_13_0 w_12_t) (= x4_13_0 x4_12_t) (= x3_13_0 x3_12_t) (= x2_13_0 x2_12_t) (= x1_13_0 x1_12_t) (= u_13_t (+ u_13_0 (* 0 time_13))) (= lt_13_t (+ lt_13_0 (* 1 time_13))) (= gt_13_t (+ gt_13_0 (* 1 time_13))) (= [gt_13_t lt_13_t u_13_t w_13_t x1_13_t x2_13_t x3_13_t x4_13_t] (integral 0. time_13 [gt_13_0 lt_13_0 u_13_0 w_13_0 x1_13_0 x2_13_0 x3_13_0 x4_13_0] flow_1)) (= mode_13 1) (forall_t 1 [0 time_13] (<= lt_13_t 0.005)) (<= lt_13_t 0.005) (<= lt_13_0 0.005) (= mode_14 1) (= lt_13_t 0.005) (= gt_14_0 gt_13_t) (= lt_14_0 0) (= u_14_0 (- (* 2.34 x2_13_t) (* (* 2.34 0.2) w_13_t))) (= w_14_0 w_13_t) (= x4_14_0 x4_13_t) (= x3_14_0 x3_13_t) (= x2_14_0 x2_13_t) (= x1_14_0 x1_13_t) (= u_14_t (+ u_14_0 (* 0 time_14))) (= lt_14_t (+ lt_14_0 (* 1 time_14))) (= gt_14_t (+ gt_14_0 (* 1 time_14))) (= [gt_14_t lt_14_t u_14_t w_14_t x1_14_t x2_14_t x3_14_t x4_14_t] (integral 0. time_14 [gt_14_0 lt_14_0 u_14_0 w_14_0 x1_14_0 x2_14_0 x3_14_0 x4_14_0] flow_1)) (= mode_14 1) (forall_t 1 [0 time_14] (<= lt_14_t 0.005)) (<= lt_14_t 0.005) (<= lt_14_0 0.005) (= mode_15 1) (= lt_14_t 0.005) (= gt_15_0 gt_14_t) (= lt_15_0 0) (= u_15_0 (- (* 2.34 x2_14_t) (* (* 2.34 0.2) w_14_t))) (= w_15_0 w_14_t) (= x4_15_0 x4_14_t) (= x3_15_0 x3_14_t) (= x2_15_0 x2_14_t) (= x1_15_0 x1_14_t) (= u_15_t (+ u_15_0 (* 0 time_15))) (= lt_15_t (+ lt_15_0 (* 1 time_15))) (= gt_15_t (+ gt_15_0 (* 1 time_15))) (= [gt_15_t lt_15_t u_15_t w_15_t x1_15_t x2_15_t x3_15_t x4_15_t] (integral 0. time_15 [gt_15_0 lt_15_0 u_15_0 w_15_0 x1_15_0 x2_15_0 x3_15_0 x4_15_0] flow_1)) (= mode_15 1) (forall_t 1 [0 time_15] (<= lt_15_t 0.005)) (<= lt_15_t 0.005) (<= lt_15_0 0.005) (= mode_16 1) (= lt_15_t 0.005) (= gt_16_0 gt_15_t) (= lt_16_0 0) (= u_16_0 (- (* 2.34 x2_15_t) (* (* 2.34 0.2) w_15_t))) (= w_16_0 w_15_t) (= x4_16_0 x4_15_t) (= x3_16_0 x3_15_t) (= x2_16_0 x2_15_t) (= x1_16_0 x1_15_t) (= u_16_t (+ u_16_0 (* 0 time_16))) (= lt_16_t (+ lt_16_0 (* 1 time_16))) (= gt_16_t (+ gt_16_0 (* 1 time_16))) (= [gt_16_t lt_16_t u_16_t w_16_t x1_16_t x2_16_t x3_16_t x4_16_t] (integral 0. time_16 [gt_16_0 lt_16_0 u_16_0 w_16_0 x1_16_0 x2_16_0 x3_16_0 x4_16_0] flow_1)) (= mode_16 1) (forall_t 1 [0 time_16] (<= lt_16_t 0.005)) (<= lt_16_t 0.005) (<= lt_16_0 0.005) (= mode_17 1) (= lt_16_t 0.005) (= gt_17_0 gt_16_t) (= lt_17_0 0) (= u_17_0 (- (* 2.34 x2_16_t) (* (* 2.34 0.2) w_16_t))) (= w_17_0 w_16_t) (= x4_17_0 x4_16_t) (= x3_17_0 x3_16_t) (= x2_17_0 x2_16_t) (= x1_17_0 x1_16_t) (= u_17_t (+ u_17_0 (* 0 time_17))) (= lt_17_t (+ lt_17_0 (* 1 time_17))) (= gt_17_t (+ gt_17_0 (* 1 time_17))) (= [gt_17_t lt_17_t u_17_t w_17_t x1_17_t x2_17_t x3_17_t x4_17_t] (integral 0. time_17 [gt_17_0 lt_17_0 u_17_0 w_17_0 x1_17_0 x2_17_0 x3_17_0 x4_17_0] flow_1)) (= mode_17 1) (forall_t 1 [0 time_17] (<= lt_17_t 0.005)) (<= lt_17_t 0.005) (<= lt_17_0 0.005) (= mode_18 1) (= lt_17_t 0.005) (= gt_18_0 gt_17_t) (= lt_18_0 0) (= u_18_0 (- (* 2.34 x2_17_t) (* (* 2.34 0.2) w_17_t))) (= w_18_0 w_17_t) (= x4_18_0 x4_17_t) (= x3_18_0 x3_17_t) (= x2_18_0 x2_17_t) (= x1_18_0 x1_17_t) (= u_18_t (+ u_18_0 (* 0 time_18))) (= lt_18_t (+ lt_18_0 (* 1 time_18))) (= gt_18_t (+ gt_18_0 (* 1 time_18))) (= [gt_18_t lt_18_t u_18_t w_18_t x1_18_t x2_18_t x3_18_t x4_18_t] (integral 0. time_18 [gt_18_0 lt_18_0 u_18_0 w_18_0 x1_18_0 x2_18_0 x3_18_0 x4_18_0] flow_1)) (= mode_18 1) (forall_t 1 [0 time_18] (<= lt_18_t 0.005)) (<= lt_18_t 0.005) (<= lt_18_0 0.005) (= mode_19 1) (= lt_18_t 0.005) (= gt_19_0 gt_18_t) (= lt_19_0 0) (= u_19_0 (- (* 2.34 x2_18_t) (* (* 2.34 0.2) w_18_t))) (= w_19_0 w_18_t) (= x4_19_0 x4_18_t) (= x3_19_0 x3_18_t) (= x2_19_0 x2_18_t) (= x1_19_0 x1_18_t) (= u_19_t (+ u_19_0 (* 0 time_19))) (= lt_19_t (+ lt_19_0 (* 1 time_19))) (= gt_19_t (+ gt_19_0 (* 1 time_19))) (= [gt_19_t lt_19_t u_19_t w_19_t x1_19_t x2_19_t x3_19_t x4_19_t] (integral 0. time_19 [gt_19_0 lt_19_0 u_19_0 w_19_0 x1_19_0 x2_19_0 x3_19_0 x4_19_0] flow_1)) (= mode_19 1) (forall_t 1 [0 time_19] (<= lt_19_t 0.005)) (<= lt_19_t 0.005) (<= lt_19_0 0.005) (= mode_19 1) (or (< w_19_t 0.01747) (> w_19_t 0.019765) (< x4_19_t 0.083125) (> x4_19_t 0.083879) (< x3_19_t -0.002121) (> x3_19_t 0.001016) (< x2_19_t 0.00336) (> x2_19_t 0.003922) (< x1_19_t 0.000176) (> x1_19_t 0.000646)) (= lt_19_t 0) (= gt_19_t 25.1)))
(check-sat)
(exit)
